data/processed_heuristic-threshold/instances/1/8/ds_725_courier_1656/pairwise.tsp
NAME: ds_725_courier_1656
TYPE: TSP
COMMENT: nil
DIMENSION: 9
EDGE_WEIGHT_TYPE: EXPLICIT
EDGE_WEIGHT_FORMAT: FULL_MATRIX
EDGE_WEIGHT_SECTION
9999 2794 2824 3105 4064 3648 2807 2329 5455 
2794 9999 2142 355 1344 1100 1462 1667 6914 
2824 2142 9999 2114 3235 1969 713 617 4962 
3105 355 2114 9999 1172 762 1405 1721 6991 
4064 1344 3235 1172 9999 1399 2522 2888 8155 
3648 1100 1969 762 1399 9999 1299 1795 6930 
2807 1462 713 1405 2522 1299 9999 554 5655 
2329 1667 617 1721 2888 1795 554 9999 5270 
5455 6914 4962 6991 8155 6930 5655 5270 9999 
