data/processed_heuristic-threshold/instances/1/8/ds_725_courier_1656/pairwise.sol
9
0 8 2 7 6 5 4 3 1 
